<number of tasks>
50

<cycle time>
1000

<order strength>
0.598


<task times>
1 124
2 241
3 175
4 118
5 224
6 142
7 70
8 279
9 76
10 189
11 153
12 107
13 24
14 182
15 109
16 195
17 261
18 36
19 148
20 129
21 67
22 73
23 209
24 126
25 194
26 58
27 194
28 143
29 284
30 256
31 116
32 211
33 113
34 80
35 49
36 295
37 72
38 155
39 197
40 46
41 130
42 105
43 165
44 143
45 55
46 176
47 131
48 175
49 150
50 98

<precedence relations>
1,16
2,8
2,20
2,25
3,23
4,8
4,9
4,31
4,35
4,36
5,8
5,9
5,10
5,11
6,8
6,9
6,10
7,10
7,11
8,40
8,50
9,14
10,12
10,13
10,14
10,15
10,16
11,12
11,15
12,30
12,36
13,17
13,20
14,18
14,37
15,19
16,21
16,26
17,21
17,22
17,23
18,23
18,27
19,21
19,24
20,28
20,29
21,25
22,25
22,27
23,49
24,26
25,28
25,29
25,30
25,32
26,27
26,31
26,37
27,33
27,34
27,43
28,34
28,35
28,37
29,33
29,35
29,36
29,50
30,33
30,34
30,37
31,38
31,43
31,46
32,50
34,38
34,39
35,42
35,48
36,40
37,39
37,40
38,41
38,42
38,44
38,45
39,44
39,46
39,49
40,43
41,47
41,48
43,49
44,47
45,48
45,50
46,48

<end>
